12
1 2
2 1
3 5
4 4
5 4
6 3
7 2
8 9
9 2
10 10
11 7
34
0 1 5
1 0 5
0 2 4
2 0 4
0 3 12
3 0 12
0 4 28
4 0 28
0 5 30
5 0 30
0 6 65
6 0 65
0 7 78
7 0 78
0 8 4
8 0 4
0 9 72
9 0 72
0 10 26
10 0 26
0 11 92
11 0 92
1 6 1
1 7 21
1 11 44
2 11 11
3 5 80
3 6 47
5 8 83
6 10 89
7 9 100
7 11 41
8 11 73
9 10 41
